c Random 3-CNF over 40 variables and 80 clauses
c Generated with `cnfgen`
c (C) 2012-2016 Massimo Lauria <lauria.massimo@gmail.com>
c https://massimolauria.github.io/cnfgen
c
c COMMAND LINE: cnfgen --output tmp-3-40-80.dimacs --output-format dimacs randkcnf 3 40 80
c
c sdimacs generated by gen-sdimacs
c
p cnf 40 80
r 0.5 1 2 3 4 5 6 7 8 9 10 11 12 13 14 15 16 17 18 19 20 0
e  21 22 23 24 25 26 27 28 29 30 31 32 33 34 35 36 37 38 39 40 0
-14 16 33 0
2 18 26 0
-19 -28 34 0
24 31 -32 0
1 22 -24 0
-9 16 -24 0
1 31 33 0
-6 -16 -28 0
5 15 -30 0
3 30 -40 0
-9 -13 38 0
5 -37 -39 0
-18 -33 35 0
-20 -21 -25 0
-5 -25 -38 0
-2 -13 -34 0
-1 2 18 0
23 -31 37 0
-8 26 38 0
12 -38 -40 0
-17 -22 26 0
14 -15 23 0
-2 -11 -39 0
-2 -12 -19 0
-3 4 -18 0
6 35 -36 0
-7 17 -36 0
8 23 -32 0
17 18 37 0
-8 30 31 0
11 17 -21 0
-28 29 38 0
-5 34 -37 0
-22 28 29 0
-3 -13 29 0
8 -28 -39 0
2 -14 38 0
16 -36 -39 0
-4 -21 29 0
-19 23 33 0
2 -6 12 0
-13 36 40 0
-2 -4 18 0
-10 -35 -37 0
13 -15 37 0
2 23 33 0
21 24 -30 0
-18 -27 33 0
-1 15 39 0
-1 2 33 0
8 13 23 0
8 12 -29 0
-2 -6 -7 0
-19 -23 -37 0
-28 33 37 0
7 -17 33 0
-5 -9 21 0
-1 -2 21 0
8 -12 -34 0
12 -22 28 0
9 16 -29 0
16 -28 29 0
-19 34 39 0
-7 8 -16 0
-7 16 32 0
7 -37 38 0
9 -14 -20 0
15 -29 40 0
7 17 -36 0
-13 -30 37 0
-19 -24 -30 0
-3 18 39 0
-4 -6 12 0
15 29 -34 0
32 -35 -40 0
15 -25 33 0
-22 -26 27 0
-4 -5 36 0
2 -6 22 0
2 4 15 0
